;; translated from ./ctigar/dillig32.c.vmt
;; original benchmark available at: https://es-static.fbk.eu/people/griggio/ic3ia/index.html
;; author: Alberto Griggio <griggio@fbk.eu>
(set-logic HORN)
(declare-fun state (Bool Bool Bool Bool Bool Int Int Int Int) Bool)
(assert (forall ((|.s.2| Bool) (|.s.3| Bool) (|.s.0| Bool) (|.s.1| Bool) (|.s.0.next| Bool) (|.s.1.next| Bool) (|.s.2.next| Bool) (|.s.3.next| Bool) (|.s.4.next| Bool) (|main.i.next| Int) (|main.i| Int) (|main.j.next| Int) (|main.j| Int) (|main.k.next| Int) (|main.k| Int) (|n.next| Int) (|n| Int) (|.s.4| Bool)) (=> (let ((.def_20 (not .s.4)))
(let ((.def_17 (not .s.3)))
(let ((.def_14 (not .s.2)))
(let ((.def_10 (not .s.1)))
(let ((.def_12 (and .def_10 .s.0)))
(let ((.def_15 (and .def_12 .def_14)))
(let ((.def_18 (and .def_15 .def_17)))
(let ((.def_21 (and .def_18 .def_20)))
.def_21)))))))) (state |.s.1| |.s.0| |.s.2| |.s.3| |.s.4| |n| |main.k| |main.j| |main.i|))))
(assert (forall ((|.s.2| Bool) (|.s.3| Bool) (|.s.0| Bool) (|.s.1| Bool) (|.s.0.next| Bool) (|.s.1.next| Bool) (|.s.2.next| Bool) (|.s.3.next| Bool) (|.s.4.next| Bool) (|main.i.next| Int) (|main.i| Int) (|main.j.next| Int) (|main.j| Int) (|main.k.next| Int) (|main.k| Int) (|n.next| Int) (|n| Int) (|.s.4| Bool)) (=> (and (state |.s.1| |.s.0| |.s.2| |.s.3| |.s.4| |n| |main.k| |main.j| |main.i|) (let ((.def_22 (not .s.0)))
(let ((.def_10 (not .s.1)))
(let ((.def_23 (and .def_10 .def_22)))
(let ((.def_14 (not .s.2)))
(let ((.def_24 (and .def_14 .def_23)))
(let ((.def_17 (not .s.3)))
(let ((.def_25 (and .def_17 .def_24)))
(let ((.def_20 (not .s.4)))
(let ((.def_286 (and .def_20 .def_25)))
(let ((.def_287 (not .def_286)))
(let ((.def_49 (not .s.0.next)))
(let ((.def_47 (not .s.1.next)))
(let ((.def_50 (and .def_47 .def_49)))
(let ((.def_45 (not .s.2.next)))
(let ((.def_51 (and .def_45 .def_50)))
(let ((.def_43 (not .s.3.next)))
(let ((.def_52 (and .def_43 .def_51)))
(let ((.def_41 (not .s.4.next)))
(let ((.def_53 (and .def_41 .def_52)))
(let ((.def_39 (= main.i main.i.next)))
(let ((.def_54 (and .def_39 .def_53)))
(let ((.def_36 (= main.j main.j.next)))
(let ((.def_55 (and .def_36 .def_54)))
(let ((.def_33 (= main.k main.k.next)))
(let ((.def_56 (and .def_33 .def_55)))
(let ((.def_30 (= n n.next)))
(let ((.def_57 (and .def_30 .def_56)))
(let ((.def_288 (or .def_57 .def_287)))
(let ((.def_95 (and .s.1.next .def_49)))
(let ((.def_152 (and .def_45 .def_95)))
(let ((.def_279 (and .def_43 .def_152)))
(let ((.def_280 (and .def_41 .def_279)))
(let ((.def_278 (= main.k.next 1)))
(let ((.def_281 (and .def_278 .def_280)))
(let ((.def_277 (= main.i.next 1)))
(let ((.def_282 (and .def_277 .def_281)))
(let ((.def_283 (and .def_36 .def_282)))
(let ((.def_284 (and .def_30 .def_283)))
(let ((.def_12 (and .def_10 .s.0)))
(let ((.def_15 (and .def_12 .def_14)))
(let ((.def_18 (and .def_15 .def_17)))
(let ((.def_21 (and .def_18 .def_20)))
(let ((.def_276 (not .def_21)))
(let ((.def_285 (or .def_276 .def_284)))
(let ((.def_289 (and .def_285 .def_288)))
(let ((.def_209 (= main.j.next 0)))
(let ((.def_64 (and .s.1.next .s.0.next)))
(let ((.def_78 (and .def_45 .def_64)))
(let ((.def_79 (and .def_43 .def_78)))
(let ((.def_80 (and .def_41 .def_79)))
(let ((.def_271 (and .def_80 .def_209)))
(let ((.def_272 (and .def_39 .def_271)))
(let ((.def_273 (and .def_33 .def_272)))
(let ((.def_274 (and .def_30 .def_273)))
(let ((.def_73 (and .s.1 .def_22)))
(let ((.def_135 (and .def_14 .def_73)))
(let ((.def_268 (and .def_17 .def_135)))
(let ((.def_269 (and .def_20 .def_268)))
(let ((.def_270 (not .def_269)))
(let ((.def_275 (or .def_270 .def_274)))
(let ((.def_290 (and .def_275 .def_289)))
(let ((.def_262 (and .s.4.next .def_52)))
(let ((.def_263 (and .def_39 .def_262)))
(let ((.def_264 (and .def_36 .def_263)))
(let ((.def_265 (and .def_33 .def_264)))
(let ((.def_266 (and .def_30 .def_265)))
(let ((.def_184 (* (- 1) main.i)))
(let ((.def_248 (+ n .def_184)))
(let ((.def_249 (<= 1 .def_248)))
(let ((.def_259 (not .def_249)))
(let ((.def_59 (and .s.1 .s.0)))
(let ((.def_109 (and .def_14 .def_59)))
(let ((.def_244 (and .def_17 .def_109)))
(let ((.def_245 (and .def_20 .def_244)))
(let ((.def_260 (and .def_245 .def_259)))
(let ((.def_261 (not .def_260)))
(let ((.def_267 (or .def_261 .def_266)))
(let ((.def_291 (and .def_267 .def_290)))
(let ((.def_116 (and .s.2.next .def_50)))
(let ((.def_252 (and .def_43 .def_116)))
(let ((.def_253 (and .def_41 .def_252)))
(let ((.def_254 (and .def_39 .def_253)))
(let ((.def_255 (and .def_36 .def_254)))
(let ((.def_256 (and .def_33 .def_255)))
(let ((.def_257 (and .def_30 .def_256)))
(let ((.def_250 (and .def_245 .def_249)))
(let ((.def_251 (not .def_250)))
(let ((.def_258 (or .def_251 .def_257)))
(let ((.def_292 (and .def_258 .def_291)))
(let ((.def_229 (+ main.k .def_184)))
(let ((.def_230 (<= .def_229 (- 1))))
(let ((.def_104 (and .s.2 .def_23)))
(let ((.def_225 (and .def_17 .def_104)))
(let ((.def_226 (and .def_20 .def_225)))
(let ((.def_241 (and .def_226 .def_230)))
(let ((.def_242 (not .def_241)))
(let ((.def_65 (and .s.2.next .def_64)))
(let ((.def_66 (and .s.3.next .def_65)))
(let ((.def_67 (and .def_41 .def_66)))
(let ((.def_68 (and .def_39 .def_67)))
(let ((.def_69 (and .def_36 .def_68)))
(let ((.def_70 (and .def_33 .def_69)))
(let ((.def_71 (and .def_30 .def_70)))
(let ((.def_243 (or .def_71 .def_242)))
(let ((.def_293 (and .def_243 .def_292)))
(let ((.def_126 (and .def_47 .s.0.next)))
(let ((.def_127 (and .s.2.next .def_126)))
(let ((.def_234 (and .def_43 .def_127)))
(let ((.def_235 (and .def_41 .def_234)))
(let ((.def_236 (and .def_39 .def_235)))
(let ((.def_237 (and .def_36 .def_236)))
(let ((.def_238 (and .def_33 .def_237)))
(let ((.def_239 (and .def_30 .def_238)))
(let ((.def_231 (not .def_230)))
(let ((.def_232 (and .def_226 .def_231)))
(let ((.def_233 (not .def_232)))
(let ((.def_240 (or .def_233 .def_239)))
(let ((.def_294 (and .def_240 .def_293)))
(let ((.def_96 (and .s.2.next .def_95)))
(let ((.def_218 (and .def_43 .def_96)))
(let ((.def_219 (and .def_41 .def_218)))
(let ((.def_220 (and .def_39 .def_219)))
(let ((.def_221 (and .def_36 .def_220)))
(let ((.def_222 (and .def_33 .def_221)))
(let ((.def_223 (and .def_30 .def_222)))
(let ((.def_86 (and .def_12 .s.2)))
(let ((.def_215 (and .def_17 .def_86)))
(let ((.def_216 (and .def_20 .def_215)))
(let ((.def_217 (not .def_216)))
(let ((.def_224 (or .def_217 .def_223)))
(let ((.def_295 (and .def_224 .def_294)))
(let ((.def_139 (and .def_43 .def_65)))
(let ((.def_140 (and .def_41 .def_139)))
(let ((.def_210 (and .def_140 .def_209)))
(let ((.def_211 (and .def_39 .def_210)))
(let ((.def_212 (and .def_33 .def_211)))
(let ((.def_213 (and .def_30 .def_212)))
(let ((.def_74 (and .s.2 .def_73)))
(let ((.def_206 (and .def_17 .def_74)))
(let ((.def_207 (and .def_20 .def_206)))
(let ((.def_208 (not .def_207)))
(let ((.def_214 (or .def_208 .def_213)))
(let ((.def_296 (and .def_214 .def_295)))
(let ((.def_199 (and .s.3.next .def_51)))
(let ((.def_200 (and .def_41 .def_199)))
(let ((.def_201 (and .def_39 .def_200)))
(let ((.def_202 (and .def_36 .def_201)))
(let ((.def_203 (and .def_33 .def_202)))
(let ((.def_204 (and .def_30 .def_203)))
(let ((.def_185 (+ main.j .def_184)))
(let ((.def_186 (<= .def_185 (- 1))))
(let ((.def_60 (and .s.2 .def_59)))
(let ((.def_181 (and .def_17 .def_60)))
(let ((.def_182 (and .def_20 .def_181)))
(let ((.def_197 (and .def_182 .def_186)))
(let ((.def_198 (not .def_197)))
(let ((.def_205 (or .def_198 .def_204)))
(let ((.def_297 (and .def_205 .def_296)))
(let ((.def_190 (and .s.3.next .def_78)))
(let ((.def_191 (and .def_41 .def_190)))
(let ((.def_192 (and .def_39 .def_191)))
(let ((.def_193 (and .def_36 .def_192)))
(let ((.def_194 (and .def_33 .def_193)))
(let ((.def_195 (and .def_30 .def_194)))
(let ((.def_187 (not .def_186)))
(let ((.def_188 (and .def_182 .def_187)))
(let ((.def_189 (not .def_188)))
(let ((.def_196 (or .def_189 .def_195)))
(let ((.def_298 (and .def_196 .def_297)))
(let ((.def_173 (and .def_45 .def_126)))
(let ((.def_174 (and .s.3.next .def_173)))
(let ((.def_175 (and .def_41 .def_174)))
(let ((.def_165 (* (- 1) main.j)))
(let ((.def_169 (+ .def_165 main.i)))
(let ((.def_163 (* (- 1) main.k.next)))
(let ((.def_170 (+ .def_163 .def_169)))
(let ((.def_171 (+ main.k .def_170)))
(let ((.def_172 (= .def_171 0)))
(let ((.def_176 (and .def_172 .def_175)))
(let ((.def_177 (and .def_39 .def_176)))
(let ((.def_178 (and .def_36 .def_177)))
(let ((.def_179 (and .def_30 .def_178)))
(let ((.def_160 (and .s.3 .def_24)))
(let ((.def_161 (and .def_20 .def_160)))
(let ((.def_162 (not .def_161)))
(let ((.def_180 (or .def_162 .def_179)))
(let ((.def_299 (and .def_180 .def_298)))
(let ((.def_153 (and .s.3.next .def_152)))
(let ((.def_154 (and .def_41 .def_153)))
(let ((.def_149 (* (- 1) main.j.next)))
(let ((.def_150 (+ main.j .def_149)))
(let ((.def_151 (= .def_150 (- 1))))
(let ((.def_155 (and .def_151 .def_154)))
(let ((.def_156 (and .def_39 .def_155)))
(let ((.def_157 (and .def_33 .def_156)))
(let ((.def_158 (and .def_30 .def_157)))
(let ((.def_146 (and .def_15 .s.3)))
(let ((.def_147 (and .def_20 .def_146)))
(let ((.def_148 (not .def_147)))
(let ((.def_159 (or .def_148 .def_158)))
(let ((.def_300 (and .def_159 .def_299)))
(let ((.def_141 (and .def_39 .def_140)))
(let ((.def_142 (and .def_36 .def_141)))
(let ((.def_143 (and .def_33 .def_142)))
(let ((.def_144 (and .def_30 .def_143)))
(let ((.def_136 (and .s.3 .def_135)))
(let ((.def_137 (and .def_20 .def_136)))
(let ((.def_138 (not .def_137)))
(let ((.def_145 (or .def_138 .def_144)))
(let ((.def_301 (and .def_145 .def_300)))
(let ((.def_128 (and .s.3.next .def_127)))
(let ((.def_129 (and .def_41 .def_128)))
(let ((.def_130 (and .def_39 .def_129)))
(let ((.def_131 (and .def_36 .def_130)))
(let ((.def_132 (and .def_33 .def_131)))
(let ((.def_133 (and .def_30 .def_132)))
(let ((.def_112 (<= main.i main.j)))
(let ((.def_110 (and .s.3 .def_109)))
(let ((.def_111 (and .def_20 .def_110)))
(let ((.def_124 (and .def_111 .def_112)))
(let ((.def_125 (not .def_124)))
(let ((.def_134 (or .def_125 .def_133)))
(let ((.def_302 (and .def_134 .def_301)))
(let ((.def_117 (and .s.3.next .def_116)))
(let ((.def_118 (and .def_41 .def_117)))
(let ((.def_119 (and .def_39 .def_118)))
(let ((.def_120 (and .def_36 .def_119)))
(let ((.def_121 (and .def_33 .def_120)))
(let ((.def_122 (and .def_30 .def_121)))
(let ((.def_113 (not .def_112)))
(let ((.def_114 (and .def_111 .def_113)))
(let ((.def_115 (not .def_114)))
(let ((.def_123 (or .def_115 .def_122)))
(let ((.def_303 (and .def_123 .def_302)))
(let ((.def_105 (and .s.3 .def_104)))
(let ((.def_106 (and .def_20 .def_105)))
(let ((.def_107 (not .def_106)))
(let ((.def_108 (or .def_57 .def_107)))
(let ((.def_304 (and .def_108 .def_303)))
(let ((.def_97 (and .s.3.next .def_96)))
(let ((.def_98 (and .def_41 .def_97)))
(let ((.def_92 (* (- 1) main.i.next)))
(let ((.def_93 (+ main.i .def_92)))
(let ((.def_94 (= .def_93 (- 1))))
(let ((.def_99 (and .def_94 .def_98)))
(let ((.def_100 (and .def_36 .def_99)))
(let ((.def_101 (and .def_33 .def_100)))
(let ((.def_102 (and .def_30 .def_101)))
(let ((.def_87 (and .s.3 .def_86)))
(let ((.def_88 (and .def_20 .def_87)))
(let ((.def_89 (not .def_88)))
(let ((.def_103 (or .def_89 .def_102)))
(let ((.def_305 (and .def_103 .def_304)))
(let ((.def_81 (and .def_39 .def_80)))
(let ((.def_82 (and .def_36 .def_81)))
(let ((.def_83 (and .def_33 .def_82)))
(let ((.def_84 (and .def_30 .def_83)))
(let ((.def_75 (and .s.3 .def_74)))
(let ((.def_76 (and .def_20 .def_75)))
(let ((.def_77 (not .def_76)))
(let ((.def_85 (or .def_77 .def_84)))
(let ((.def_306 (and .def_85 .def_305)))
(let ((.def_61 (and .s.3 .def_60)))
(let ((.def_62 (and .def_20 .def_61)))
(let ((.def_63 (not .def_62)))
(let ((.def_72 (or .def_63 .def_71)))
(let ((.def_307 (and .def_72 .def_306)))
(let ((.def_26 (and .s.4 .def_25)))
(let ((.def_27 (not .def_26)))
(let ((.def_58 (or .def_27 .def_57)))
(let ((.def_308 (and .def_58 .def_307)))
.def_308)))))))))))))))))))))))))))))))))))))))))))))))))))))))))))))))))))))))))))))))))))))))))))))))))))))))))))))))))))))))))))))))))))))))))))))))))))))))))))))))))))))))))))))))))))))))))))))))))))))))))))))))))))))))))))))))))))))))))))))))))))))))))))))))))))))))))))))))) (state |.s.1.next| |.s.0.next| |.s.2.next| |.s.3.next| |.s.4.next| |n.next| |main.k.next| |main.j.next| |main.i.next|))))
(assert (forall ((|.s.2| Bool) (|.s.3| Bool) (|.s.0| Bool) (|.s.1| Bool) (|.s.0.next| Bool) (|.s.1.next| Bool) (|.s.2.next| Bool) (|.s.3.next| Bool) (|.s.4.next| Bool) (|main.i.next| Int) (|main.i| Int) (|main.j.next| Int) (|main.j| Int) (|main.k.next| Int) (|main.k| Int) (|n.next| Int) (|n| Int) (|.s.4| Bool)) (=> (state |.s.1| |.s.0| |.s.2| |.s.3| |.s.4| |n| |main.k| |main.j| |main.i|) (let ((.def_59 (and .s.1 .s.0)))
(let ((.def_60 (and .s.2 .def_59)))
(let ((.def_61 (and .s.3 .def_60)))
(let ((.def_20 (not .s.4)))
(let ((.def_62 (and .def_20 .def_61)))
(let ((.def_63 (not .def_62)))
.def_63)))))))))
(check-sat)
